1109499
61,48,92,54,43,71,62,12,31,36,47,98,79,67,35,90,52,7,1,26,63,2,88,84,4,34,41,96,66,81,15,57,60,82,14,49,87,75,37,86,44,6,80,85,38,91,83,21,72,50,78,24,77,25,11,16,28,39,93,18,58,89,33,27,45,70,53,97,10,22,23,42,51,64,13,3,65,0,56,46,94,32,8,69,73,59,30,29,95,19,20,17,5,55,74,68,40,76,9